DIMENSION: 30
 1 37.44 -25.40
 2 38.43 -9.08
 3 41.11 -8.36
 4 37.23 -5.59
 5 36.32 -6.18
 6 36.43 -4.25
 7 37.13 -3.41
 8 37.53 -4.46
 9 38.21 -0.29
 10 39.28 -0.22
 11 41.23 2.11
 12 41.38 -0.53
 13 40.24 -3.41
 14 41.39 -4.43
 15 43.15 -2.58
 16 43.22 -8.23
 17 38.54 1.26
 18 39.34 2.39
 19 42.30 1.31
 20 44.50 -0.34
 21 43.36 1.26
 22 43.18 5.24
 23 43.42 7.15
 24 43.42 7.23
 25 42.42 9.27
 26 45.50 1.16
 27 45.26 4.24
 28 45.45 4.51
 29 45.10 5.43
 30 48.24 -4.29
